
  32    4
  10   10   10   10

   0   0   0   0   0   2 2 4 
   9   1   1   0   1   2 7 3 
   3   5   4   0   4   2 20 5 
   3   6   0   1   9   2 20 7 
   6   5   4   0   5   1 6 
   1   4   3   0   5   2 10 8 
   3   6   0   3   3   2 10 8 
   3   4   3   0   7   2 13 9 
   1   3   7   5   0   2 15 11 
   1   0   3   3   5   3 19 15 12 
   2   3   0   5   5   3 19 16 12 
  10   0   5   4   2   2 18 14 
   1   2   6   0   3   3 31 21 17 
   2   0   5   4   9   2 31 17 
   3   2   6   4   0   1 16 
   6   2   0   4   3   1 18 
   1   0   2   7   3   1 22 
  10   5   5   4   0   1 21 
   8   5   7   0   2   1 21 
  10   6   4   0   4   1 21 
   8   0   4   3   2   1 23 
   4   3   0   6   3   1 23 
   7   0   5   3   2   1 24 
   7   7   2   4   0   1 25 
   4   6   0   4   6   1 26 
   6   2   0   6   4   1 27 
   6   4   3   7   0   2 30 28 
  10   5   2   2   0   1 29 
   6   2   0   2   4   1 32
   8   0   3   3   1   1 32
   8   0   4   4   4   1 32
   0   0   0   0   0   0 
